nNurses = 110;
nHours = 25;
minHours = 8;
maxHours = 20;
maxConsec = 12;
maxPresence = 12;
demand = [21, 21, 23, 28, 32, 28, 27, 26, 24, 20, 15, 16, 18, 22, 17, 13, 15, 16, 19, 15, 19, 20, 20, 20, 22];
